p edge 30 99
e 1 2
e 1 3
e 1 9
e 1 10
e 1 11
e 1 14
e 1 16
e 2 3
e 2 4
e 2 7
e 2 10
e 2 12
e 2 15
e 3 5
e 3 6
e 3 7
e 3 10
e 3 13
e 3 16
e 4 8
e 4 9
e 4 10
e 4 11
e 4 16
e 5 7
e 5 8
e 5 9
e 5 11
e 5 13
e 5 15
e 6 9
e 6 10
e 6 13
e 6 14
e 6 16
e 7 8
e 7 11
e 8 12
e 8 13
e 8 14
e 8 15
e 9 11
e 9 14
e 9 16
e 10 11
e 10 13
e 10 14
e 10 15
e 10 16
e 11 13
e 11 14
e 11 15
e 12 14
e 12 15
e 13 14
e 13 15
e 13 16
e 14 16
e 17 19
e 17 21
e 17 23
e 17 27
e 17 28
e 18 19
e 18 20
e 18 23
e 18 27
e 18 28
e 18 30
e 19 23
e 19 25
e 20 21
e 20 22
e 20 23
e 20 24
e 20 25
e 20 26
e 20 27
e 21 27
e 21 28
e 21 29
e 22 24
e 22 26
e 22 27
e 23 26
e 23 28
e 23 30
e 24 25
e 24 26
e 24 28
e 24 29
e 25 28
e 25 29
e 25 30
e 26 27
e 26 29
e 27 30
e 28 29
e 28 30
